p cnf 729 81
-1 0
18 0
-19 0
-28 0
-37 0
-46 0
60 0
64 0
-73 0
-82 0
-91 0
103 0
-109 0
-118 0
-127 0
-136 0
-145 0
-154 0
-163 0
-172 0
-181 0
-190 0
205 0
209 0
-217 0
-226 0
-235 0
-244 0
-253 0
-262 0
-271 0
-280 0
-289 0
-298 0
309 0
-316 0
-325 0
341 0
-343 0
-352 0
-361 0
-370 0
-379 0
-388 0
-397 0
-406 0
-415 0
-424 0
-433 0
-442 0
454 0
-460 0
475 0
479 0
-487 0
-496 0
511 0
-514 0
526 0
537 0
-541 0
-550 0
-559 0
-568 0
-577 0
-586 0
-595 0
-604 0
-613 0
630 0
-631 0
-640 0
-649 0
-658 0
-667 0
-676 0
687 0
-694 0
710 0
-712 0
-721 0
